c File: data_files/evolved_graphs/g3701.col
c
c Auto generated graph
c
p edge 100 1221
e 1 2
e 1 10
e 1 17
e 1 18
e 1 23
e 1 46
e 1 61
e 2 3
e 2 8
e 2 10
e 2 16
e 2 24
e 2 48
e 2 82
e 3 4
e 3 9
e 3 10
e 3 13
e 3 15
e 3 17
e 3 18
e 3 19
e 3 20
e 3 21
e 3 22
e 3 25
e 3 51
e 3 56
e 3 91
e 3 96
e 4 5
e 4 9
e 4 14
e 4 15
e 4 16
e 4 17
e 4 23
e 4 74
e 5 10
e 5 14
e 5 15
e 5 17
e 5 20
e 5 23
e 5 33
e 6 9
e 6 13
e 6 14
e 6 20
e 6 21
e 6 22
e 6 52
e 6 82
e 7 9
e 7 11
e 7 17
e 7 19
e 7 23
e 7 49
e 7 54
e 7 55
e 7 69
e 8 17
e 8 18
e 8 19
e 8 20
e 8 23
e 9 15
e 9 94
e 10 11
e 10 13
e 10 21
e 10 83
e 11 12
e 11 14
e 11 23
e 11 87
e 12 18
e 12 20
e 12 21
e 12 23
e 12 31
e 12 35
e 13 14
e 13 18
e 13 20
e 13 23
e 13 95
e 14 19
e 14 23
e 14 24
e 14 25
e 14 34
e 14 38
e 14 65
e 15 18
e 15 20
e 15 32
e 15 43
e 15 89
e 15 100
e 16 18
e 16 22
e 16 24
e 16 25
e 17 20
e 17 23
e 17 47
e 17 68
e 18 22
e 18 93
e 19 22
e 19 26
e 19 28
e 19 31
e 19 32
e 19 34
e 19 35
e 19 36
e 19 38
e 19 42
e 19 43
e 19 44
e 19 45
e 19 48
e 19 49
e 19 51
e 19 52
e 19 53
e 19 54
e 19 55
e 19 58
e 19 60
e 19 61
e 19 63
e 19 64
e 19 65
e 19 66
e 19 69
e 19 70
e 19 71
e 19 72
e 19 73
e 19 74
e 19 75
e 19 76
e 19 78
e 19 79
e 19 80
e 19 81
e 19 82
e 19 83
e 19 84
e 19 85
e 19 86
e 19 87
e 19 88
e 19 89
e 19 90
e 19 92
e 19 93
e 19 94
e 19 95
e 19 96
e 19 97
e 19 98
e 19 100
e 20 26
e 20 28
e 20 29
e 20 30
e 20 31
e 20 32
e 20 34
e 20 35
e 20 36
e 20 37
e 20 38
e 20 39
e 20 41
e 20 42
e 20 43
e 20 44
e 20 45
e 20 46
e 20 49
e 20 51
e 20 52
e 20 53
e 20 54
e 20 55
e 20 56
e 20 58
e 20 59
e 20 60
e 20 62
e 20 63
e 20 64
e 20 65
e 20 66
e 20 68
e 20 70
e 20 71
e 20 74
e 20 76
e 20 78
e 20 79
e 20 80
e 20 82
e 20 83
e 20 84
e 20 87
e 20 88
e 20 89
e 20 90
e 20 91
e 20 92
e 20 94
e 20 95
e 20 97
e 20 98
e 20 100
e 21 22
e 21 26
e 21 28
e 21 29
e 21 30
e 21 31
e 21 33
e 21 34
e 21 35
e 21 37
e 21 40
e 21 41
e 21 42
e 21 43
e 21 45
e 21 46
e 21 47
e 21 49
e 21 51
e 21 52
e 21 53
e 21 54
e 21 56
e 21 57
e 21 58
e 21 60
e 21 61
e 21 63
e 21 64
e 21 65
e 21 66
e 21 67
e 21 68
e 21 69
e 21 70
e 21 71
e 21 73
e 21 75
e 21 76
e 21 77
e 21 79
e 21 80
e 21 81
e 21 82
e 21 84
e 21 86
e 21 87
e 21 88
e 21 89
e 21 93
e 21 95
e 21 96
e 21 97
e 21 98
e 21 99
e 21 100
e 22 24
e 22 26
e 22 28
e 22 29
e 22 30
e 22 31
e 22 32
e 22 33
e 22 36
e 22 38
e 22 39
e 22 40
e 22 42
e 22 43
e 22 44
e 22 45
e 22 47
e 22 50
e 22 51
e 22 52
e 22 53
e 22 54
e 22 55
e 22 56
e 22 58
e 22 59
e 22 61
e 22 62
e 22 63
e 22 65
e 22 66
e 22 68
e 22 69
e 22 70
e 22 72
e 22 73
e 22 75
e 22 76
e 22 79
e 22 80
e 22 81
e 22 82
e 22 84
e 22 85
e 22 86
e 22 87
e 22 88
e 22 89
e 22 90
e 22 91
e 22 92
e 22 94
e 22 96
e 22 97
e 22 98
e 22 99
e 23 25
e 23 26
e 23 29
e 23 30
e 23 31
e 23 32
e 23 33
e 23 34
e 23 36
e 23 38
e 23 41
e 23 43
e 23 44
e 23 45
e 23 46
e 23 47
e 23 49
e 23 50
e 23 51
e 23 53
e 23 54
e 23 55
e 23 56
e 23 57
e 23 59
e 23 60
e 23 61
e 23 63
e 23 64
e 23 67
e 23 68
e 23 69
e 23 70
e 23 71
e 23 73
e 23 74
e 23 75
e 23 76
e 23 77
e 23 79
e 23 80
e 23 82
e 23 84
e 23 85
e 23 86
e 23 87
e 23 89
e 23 90
e 23 91
e 23 94
e 23 95
e 23 97
e 23 99
e 24 25
e 24 27
e 24 28
e 24 31
e 24 32
e 24 33
e 24 34
e 24 36
e 24 37
e 24 38
e 24 40
e 24 41
e 24 42
e 24 43
e 24 44
e 24 46
e 24 47
e 24 48
e 24 49
e 24 51
e 24 52
e 24 53
e 24 54
e 24 55
e 24 56
e 24 57
e 24 58
e 24 59
e 24 61
e 24 62
e 24 63
e 24 64
e 24 66
e 24 67
e 24 68
e 24 69
e 24 70
e 24 71
e 24 72
e 24 73
e 24 74
e 24 75
e 24 76
e 24 78
e 24 79
e 24 80
e 24 81
e 24 82
e 24 84
e 24 85
e 24 86
e 24 87
e 24 89
e 24 91
e 24 92
e 24 93
e 24 94
e 24 96
e 24 97
e 24 99
e 24 100
e 25 26
e 25 28
e 25 29
e 25 30
e 25 32
e 25 33
e 25 34
e 25 35
e 25 37
e 25 38
e 25 39
e 25 41
e 25 42
e 25 43
e 25 45
e 25 46
e 25 47
e 25 48
e 25 49
e 25 50
e 25 51
e 25 52
e 25 54
e 25 55
e 25 56
e 25 57
e 25 59
e 25 60
e 25 61
e 25 62
e 25 63
e 25 64
e 25 65
e 25 67
e 25 70
e 25 73
e 25 75
e 25 76
e 25 78
e 25 79
e 25 80
e 25 81
e 25 83
e 25 84
e 25 86
e 25 87
e 25 88
e 25 89
e 25 90
e 25 91
e 25 94
e 25 95
e 25 96
e 25 97
e 25 98
e 25 99
e 26 27
e 26 37
e 26 48
e 26 55
e 26 63
e 26 68
e 26 70
e 26 71
e 27 30
e 27 37
e 27 43
e 27 54
e 27 60
e 27 65
e 27 67
e 27 73
e 27 77
e 27 81
e 27 91
e 27 94
e 27 98
e 28 34
e 28 37
e 28 39
e 28 42
e 28 44
e 28 51
e 28 52
e 28 55
e 28 60
e 28 72
e 28 73
e 28 75
e 28 77
e 28 78
e 28 85
e 28 86
e 28 88
e 28 91
e 28 94
e 28 99
e 28 100
e 29 31
e 29 34
e 29 36
e 29 41
e 29 44
e 29 46
e 29 50
e 29 53
e 29 56
e 29 60
e 29 65
e 29 69
e 29 70
e 29 78
e 29 80
e 29 81
e 29 83
e 29 86
e 29 93
e 29 94
e 30 32
e 30 52
e 30 53
e 30 67
e 30 70
e 30 79
e 30 94
e 30 95
e 30 96
e 30 97
e 30 98
e 31 32
e 31 33
e 31 34
e 31 35
e 31 37
e 31 39
e 31 41
e 31 43
e 31 44
e 31 94
e 31 96
e 31 97
e 31 98
e 32 33
e 32 43
e 32 55
e 32 79
e 32 83
e 32 88
e 32 94
e 32 95
e 32 97
e 32 98
e 32 99
e 33 34
e 33 36
e 33 37
e 33 40
e 33 41
e 33 43
e 33 44
e 33 48
e 33 50
e 33 54
e 33 67
e 33 82
e 33 94
e 33 95
e 33 96
e 33 98
e 33 99
e 33 100
e 34 36
e 34 39
e 34 42
e 34 43
e 34 47
e 34 55
e 34 59
e 34 70
e 34 75
e 34 76
e 34 94
e 34 95
e 34 97
e 34 98
e 35 38
e 35 45
e 35 59
e 35 74
e 35 76
e 35 89
e 35 98
e 35 99
e 35 100
e 36 42
e 36 44
e 36 52
e 36 56
e 36 80
e 36 88
e 36 91
e 36 94
e 36 95
e 36 99
e 36 100
e 37 38
e 37 42
e 37 59
e 37 67
e 37 94
e 37 97
e 37 100
e 38 45
e 38 55
e 38 94
e 38 96
e 38 98
e 39 45
e 39 51
e 39 55
e 39 80
e 39 90
e 39 97
e 39 98
e 40 41
e 40 44
e 40 59
e 40 72
e 40 95
e 40 96
e 40 97
e 40 98
e 40 99
e 40 100
e 41 53
e 41 60
e 41 61
e 41 70
e 41 85
e 41 96
e 41 97
e 41 99
e 41 100
e 42 43
e 42 57
e 42 69
e 42 75
e 42 83
e 42 98
e 43 48
e 43 55
e 43 63
e 43 72
e 43 87
e 43 88
e 43 94
e 43 96
e 43 99
e 44 54
e 44 82
e 44 94
e 44 96
e 44 97
e 44 99
e 44 100
e 45 59
e 45 61
e 45 65
e 45 70
e 45 73
e 45 76
e 45 81
e 45 84
e 45 94
e 45 95
e 45 96
e 45 98
e 45 99
e 45 100
e 46 49
e 46 53
e 46 59
e 46 64
e 46 67
e 46 75
e 46 79
e 46 93
e 46 95
e 46 96
e 46 97
e 46 98
e 46 99
e 46 100
e 47 50
e 47 53
e 47 54
e 47 55
e 47 56
e 47 57
e 47 74
e 47 86
e 47 87
e 47 88
e 47 94
e 47 95
e 47 97
e 47 99
e 48 50
e 48 54
e 48 60
e 48 62
e 48 68
e 48 69
e 48 70
e 48 71
e 48 72
e 48 73
e 48 75
e 48 83
e 48 94
e 48 95
e 48 96
e 49 58
e 49 61
e 49 69
e 49 71
e 49 81
e 49 82
e 49 83
e 49 89
e 49 95
e 49 97
e 49 98
e 49 99
e 49 100
e 50 55
e 50 56
e 50 61
e 50 68
e 50 69
e 50 72
e 50 76
e 50 80
e 50 84
e 50 88
e 50 94
e 50 97
e 50 99
e 50 100
e 51 57
e 51 58
e 51 63
e 51 65
e 51 66
e 51 72
e 51 76
e 51 86
e 51 87
e 51 89
e 51 91
e 51 92
e 51 94
e 51 95
e 51 97
e 51 99
e 51 100
e 52 53
e 52 57
e 52 58
e 52 63
e 52 64
e 52 70
e 52 78
e 52 80
e 52 81
e 52 82
e 52 83
e 52 88
e 52 90
e 52 97
e 52 99
e 52 100
e 53 54
e 53 56
e 53 57
e 53 58
e 53 59
e 53 61
e 53 65
e 53 73
e 53 76
e 53 78
e 53 80
e 53 87
e 53 95
e 53 97
e 53 99
e 53 100
e 54 60
e 54 64
e 54 67
e 54 68
e 54 72
e 54 75
e 54 76
e 54 78
e 54 81
e 54 90
e 54 96
e 54 97
e 54 98
e 54 99
e 54 100
e 55 60
e 55 64
e 55 66
e 55 67
e 55 70
e 55 71
e 55 73
e 55 76
e 55 81
e 55 84
e 55 86
e 55 94
e 55 95
e 55 96
e 55 97
e 56 57
e 56 72
e 56 73
e 56 76
e 56 78
e 56 80
e 56 81
e 56 82
e 56 87
e 56 94
e 56 95
e 56 96
e 56 100
e 57 58
e 57 61
e 57 65
e 57 70
e 57 72
e 57 75
e 57 76
e 57 77
e 57 78
e 57 79
e 57 80
e 57 84
e 57 85
e 57 94
e 57 95
e 57 96
e 57 98
e 57 100
e 58 62
e 58 66
e 58 68
e 58 70
e 58 76
e 58 78
e 58 83
e 58 86
e 58 87
e 58 88
e 58 89
e 58 95
e 58 97
e 58 99
e 58 100
e 59 63
e 59 64
e 59 65
e 59 73
e 59 75
e 59 80
e 59 88
e 59 91
e 59 94
e 59 95
e 59 96
e 59 100
e 60 61
e 60 70
e 60 76
e 60 79
e 60 84
e 60 86
e 60 88
e 60 91
e 60 98
e 61 66
e 61 67
e 61 70
e 61 73
e 61 79
e 61 91
e 61 95
e 61 96
e 61 97
e 61 98
e 62 66
e 62 73
e 62 75
e 62 78
e 62 82
e 62 84
e 62 86
e 62 90
e 62 93
e 62 98
e 62 99
e 62 100
e 63 72
e 63 73
e 63 81
e 63 84
e 63 86
e 63 88
e 63 90
e 63 91
e 63 93
e 63 94
e 63 95
e 63 96
e 63 97
e 63 98
e 63 99
e 63 100
e 64 68
e 64 70
e 64 75
e 64 80
e 64 85
e 64 86
e 64 91
e 64 95
e 64 96
e 64 97
e 64 98
e 64 99
e 64 100
e 65 68
e 65 70
e 65 71
e 65 72
e 65 73
e 65 77
e 65 79
e 65 82
e 65 83
e 65 91
e 65 94
e 65 95
e 65 96
e 65 97
e 65 100
e 66 70
e 66 72
e 66 73
e 66 76
e 66 77
e 66 78
e 66 80
e 66 88
e 66 93
e 66 94
e 66 95
e 66 96
e 66 98
e 66 99
e 67 69
e 67 74
e 67 75
e 67 79
e 67 82
e 67 90
e 67 94
e 67 95
e 67 96
e 67 99
e 67 100
e 68 72
e 68 79
e 68 80
e 68 86
e 68 93
e 68 94
e 68 96
e 68 98
e 68 99
e 69 78
e 69 81
e 69 87
e 69 95
e 69 96
e 69 98
e 69 99
e 70 72
e 70 73
e 70 77
e 70 81
e 70 84
e 70 86
e 70 90
e 70 95
e 70 96
e 70 99
e 71 78
e 71 81
e 71 82
e 71 88
e 71 91
e 71 95
e 71 97
e 71 100
e 72 80
e 72 82
e 72 88
e 72 92
e 72 96
e 72 97
e 72 98
e 72 99
e 72 100
e 73 75
e 73 77
e 73 90
e 73 96
e 73 97
e 73 100
e 74 78
e 74 80
e 74 90
e 74 91
e 74 95
e 74 97
e 74 98
e 74 99
e 74 100
e 75 77
e 75 81
e 75 82
e 75 84
e 75 89
e 75 96
e 75 97
e 75 99
e 76 77
e 76 78
e 76 80
e 76 82
e 76 84
e 76 87
e 76 96
e 76 97
e 76 99
e 77 82
e 77 84
e 77 89
e 77 91
e 77 94
e 77 96
e 77 97
e 77 98
e 77 100
e 78 79
e 78 80
e 78 82
e 78 88
e 78 94
e 78 95
e 78 96
e 78 97
e 78 98
e 78 99
e 79 80
e 79 84
e 79 85
e 79 89
e 79 92
e 79 94
e 79 98
e 79 99
e 79 100
e 80 82
e 80 97
e 80 98
e 80 99
e 81 88
e 81 89
e 81 91
e 81 93
e 81 94
e 81 98
e 81 99
e 81 100
e 82 84
e 82 89
e 82 91
e 82 92
e 82 94
e 82 98
e 82 99
e 82 100
e 83 89
e 83 96
e 83 98
e 83 99
e 84 87
e 84 89
e 84 91
e 84 92
e 84 94
e 84 95
e 84 98
e 84 99
e 84 100
e 85 94
e 85 97
e 86 92
e 86 94
e 86 95
e 86 98
e 86 100
e 87 92
e 87 94
e 87 95
e 87 97
e 87 99
e 88 91
e 88 94
e 88 96
e 88 97
e 88 98
e 88 99
e 88 100
e 89 91
e 89 94
e 89 96
e 89 97
e 89 98
e 89 99
e 90 94
e 90 95
e 90 96
e 90 97
e 90 98
e 90 99
e 90 100
e 91 93
e 91 94
e 91 96
e 91 98
e 91 100
e 92 93
e 92 95
e 92 96
e 92 98
e 92 99
e 92 100
e 93 96
e 93 98
e 94 95
e 94 96
e 94 100
e 96 98
e 96 100
e 98 99
